100
1000
240
240
238
237
237
235
235
234
234
233
233
233
233
232
232
231
230
230
229
229
228
228
228
227
225
225
222
222
222
222
220
219
218
216
214
213
213
213
213
212
211
211
210
210
210
208
207
207
207
205
204
204
203
202
202
200
200
199
199
197
197
197
196
195
195
194
192
191
188
187
186
185
183
182
181
180
180
177
177
176
174
174
174
174
173
172
171
168
166
166
165
163
163
162
162
162
162
162
162
162
